; generated by Theta
; https://github.com/ftsrg/theta/

(set-logic HORN)

; declarations
(declare-fun main_init_0 ((_ FloatingPoint 11 53) (_ FloatingPoint 11 53) (_ FloatingPoint 11 53) (_ FloatingPoint 11 53) (_ BitVec 32) (_ BitVec 1) (_ BitVec 32) (_ BitVec 32) (_ BitVec 32) (_ FloatingPoint 11 53) (_ FloatingPoint 11 53)) Bool)
(declare-fun main_final_2 ((_ FloatingPoint 11 53) (_ FloatingPoint 11 53) (_ FloatingPoint 11 53) (_ FloatingPoint 11 53) (_ BitVec 32) (_ BitVec 1) (_ BitVec 32) (_ BitVec 32) (_ BitVec 32) (_ FloatingPoint 11 53) (_ FloatingPoint 11 53)) Bool)
(declare-fun __loc_69142_4 ((_ FloatingPoint 11 53) (_ FloatingPoint 11 53) (_ FloatingPoint 11 53) (_ FloatingPoint 11 53) (_ BitVec 32) (_ BitVec 1) (_ BitVec 32) (_ BitVec 32) (_ BitVec 32) (_ FloatingPoint 11 53) (_ FloatingPoint 11 53)) Bool)
(declare-fun __loc_66141_5 ((_ FloatingPoint 11 53) (_ FloatingPoint 11 53) (_ FloatingPoint 11 53) (_ FloatingPoint 11 53) (_ BitVec 32) (_ BitVec 1) (_ BitVec 32) (_ BitVec 32) (_ BitVec 32) (_ FloatingPoint 11 53) (_ FloatingPoint 11 53)) Bool)
(declare-fun __loc_64140_3 ((_ FloatingPoint 11 53) (_ FloatingPoint 11 53) (_ FloatingPoint 11 53) (_ FloatingPoint 11 53) (_ BitVec 32) (_ BitVec 1) (_ BitVec 32) (_ BitVec 32) (_ BitVec 32) (_ FloatingPoint 11 53) (_ FloatingPoint 11 53)) Bool)
(declare-fun __loc_32150_1 ((_ FloatingPoint 11 53) (_ FloatingPoint 11 53) (_ FloatingPoint 11 53) (_ FloatingPoint 11 53) (_ BitVec 32) (_ BitVec 1) (_ BitVec 32) (_ BitVec 32) (_ BitVec 32) (_ FloatingPoint 11 53) (_ FloatingPoint 11 53)) Bool)
(declare-fun main_error_6 ((_ FloatingPoint 11 53) (_ FloatingPoint 11 53) (_ FloatingPoint 11 53) (_ FloatingPoint 11 53) (_ BitVec 32) (_ BitVec 1) (_ BitVec 32) (_ BitVec 32) (_ BitVec 32) (_ FloatingPoint 11 53) (_ FloatingPoint 11 53)) Bool)

; facts, rules, queries
(assert (forall ((|call_sin_ret4| (_ FloatingPoint 11 53)) (|benchmark21::x| (_ FloatingPoint 11 53)) (|call_cos_ret3| (_ FloatingPoint 11 53)) (|benchmark21::y| (_ FloatingPoint 11 53)) (|__VERIFIER_assert::cond| (_ BitVec 32)) (|__VERIFIER_assert_ret| (_ BitVec 1)) (|main_ret| (_ BitVec 32)) (|benchmark21_ret| (_ BitVec 32)) (|call_benchmark21_ret7| (_ BitVec 32)) (|main::x| (_ FloatingPoint 11 53)) (|main::y| (_ FloatingPoint 11 53))) (=> true (main_init_0 |call_sin_ret4| |benchmark21::x| |call_cos_ret3| |benchmark21::y| |__VERIFIER_assert::cond| |__VERIFIER_assert_ret| |main_ret| |benchmark21_ret| |call_benchmark21_ret7| |main::x| |main::y|))))
(assert (forall ((|call_sin_ret4| (_ FloatingPoint 11 53)) (|benchmark21::x| (_ FloatingPoint 11 53)) (|call_cos_ret3| (_ FloatingPoint 11 53)) (|benchmark21::y| (_ FloatingPoint 11 53)) (|__VERIFIER_assert::cond| (_ BitVec 32)) (|__VERIFIER_assert_ret_new| (_ BitVec 1)) (|main_ret_new| (_ BitVec 32)) (|benchmark21_ret| (_ BitVec 32)) (|call_benchmark21_ret7| (_ BitVec 32)) (|main::x| (_ FloatingPoint 11 53)) (|main::y| (_ FloatingPoint 11 53)) (|__VERIFIER_assert_ret| (_ BitVec 1)) (|main_ret| (_ BitVec 32))) (=> (and (__loc_32150_1 |call_sin_ret4| |benchmark21::x| |call_cos_ret3| |benchmark21::y| |__VERIFIER_assert::cond| |__VERIFIER_assert_ret| |main_ret| |benchmark21_ret| |call_benchmark21_ret7| |main::x| |main::y|) (and (and (not (= |__VERIFIER_assert::cond| #b00000000000000000000000000000000)) (= |__VERIFIER_assert_ret_new| #b0)) (= |main_ret_new| #b00000000000000000000000000000000))) (main_final_2 |call_sin_ret4| |benchmark21::x| |call_cos_ret3| |benchmark21::y| |__VERIFIER_assert::cond| |__VERIFIER_assert_ret_new| |main_ret_new| |benchmark21_ret| |call_benchmark21_ret7| |main::x| |main::y|))))
(assert (forall ((|call_sin_ret4| (_ FloatingPoint 11 53)) (|benchmark21::x| (_ FloatingPoint 11 53)) (|call_cos_ret3| (_ FloatingPoint 11 53)) (|benchmark21::y| (_ FloatingPoint 11 53)) (|__VERIFIER_assert::cond| (_ BitVec 32)) (|__VERIFIER_assert_ret| (_ BitVec 1)) (|main_ret| (_ BitVec 32)) (|benchmark21_ret| (_ BitVec 32)) (|call_benchmark21_ret7| (_ BitVec 32)) (|main::x| (_ FloatingPoint 11 53)) (|main::y| (_ FloatingPoint 11 53))) (=> (and (__loc_64140_3 |call_sin_ret4| |benchmark21::x| |call_cos_ret3| |benchmark21::y| |__VERIFIER_assert::cond| |__VERIFIER_assert_ret| |main_ret| |benchmark21_ret| |call_benchmark21_ret7| |main::x| |main::y|) true) (__loc_69142_4 |call_sin_ret4| |benchmark21::x| |call_cos_ret3| |benchmark21::y| |__VERIFIER_assert::cond| |__VERIFIER_assert_ret| |main_ret| |benchmark21_ret| |call_benchmark21_ret7| |main::x| |main::y|))))
(assert (forall ((|call_sin_ret4| (_ FloatingPoint 11 53)) (|benchmark21::x| (_ FloatingPoint 11 53)) (|call_cos_ret3| (_ FloatingPoint 11 53)) (|benchmark21::y| (_ FloatingPoint 11 53)) (|__VERIFIER_assert::cond| (_ BitVec 32)) (|__VERIFIER_assert_ret| (_ BitVec 1)) (|main_ret| (_ BitVec 32)) (|benchmark21_ret| (_ BitVec 32)) (|call_benchmark21_ret7| (_ BitVec 32)) (|main::x| (_ FloatingPoint 11 53)) (|main::y| (_ FloatingPoint 11 53))) (=> (and (__loc_69142_4 |call_sin_ret4| |benchmark21::x| |call_cos_ret3| |benchmark21::y| |__VERIFIER_assert::cond| |__VERIFIER_assert_ret| |main_ret| |benchmark21_ret| |call_benchmark21_ret7| |main::x| |main::y|) true) (__loc_66141_5 |call_sin_ret4| |benchmark21::x| |call_cos_ret3| |benchmark21::y| |__VERIFIER_assert::cond| |__VERIFIER_assert_ret| |main_ret| |benchmark21_ret| |call_benchmark21_ret7| |main::x| |main::y|))))
(assert (forall ((|call_sin_ret4| (_ FloatingPoint 11 53)) (|benchmark21::x_new| (_ FloatingPoint 11 53)) (|call_cos_ret3| (_ FloatingPoint 11 53)) (|benchmark21::y_new| (_ FloatingPoint 11 53)) (|__VERIFIER_assert::cond| (_ BitVec 32)) (|__VERIFIER_assert_ret| (_ BitVec 1)) (|main_ret| (_ BitVec 32)) (|benchmark21_ret| (_ BitVec 32)) (|call_benchmark21_ret7| (_ BitVec 32)) (|main::x_new| (_ FloatingPoint 11 53)) (|main::y_new| (_ FloatingPoint 11 53)) (|benchmark21::x| (_ FloatingPoint 11 53)) (|benchmark21::y| (_ FloatingPoint 11 53)) (|main::x| (_ FloatingPoint 11 53)) (|main::y| (_ FloatingPoint 11 53))) (=> (and (main_init_0 |call_sin_ret4| |benchmark21::x| |call_cos_ret3| |benchmark21::y| |__VERIFIER_assert::cond| |__VERIFIER_assert_ret| |main_ret| |benchmark21_ret| |call_benchmark21_ret7| |main::x| |main::y|) (and (and (and (and (and true true) true) true) (= |benchmark21::x_new| |main::x_new|)) (= |benchmark21::y_new| |main::y_new|))) (__loc_64140_3 |call_sin_ret4| |benchmark21::x_new| |call_cos_ret3| |benchmark21::y_new| |__VERIFIER_assert::cond| |__VERIFIER_assert_ret| |main_ret| |benchmark21_ret| |call_benchmark21_ret7| |main::x_new| |main::y_new|))))
(assert (forall ((|call_sin_ret4| (_ FloatingPoint 11 53)) (|benchmark21::x| (_ FloatingPoint 11 53)) (|call_cos_ret3| (_ FloatingPoint 11 53)) (|benchmark21::y| (_ FloatingPoint 11 53)) (|__VERIFIER_assert::cond_new| (_ BitVec 32)) (|__VERIFIER_assert_ret| (_ BitVec 1)) (|main_ret| (_ BitVec 32)) (|benchmark21_ret_new| (_ BitVec 32)) (|call_benchmark21_ret7_new| (_ BitVec 32)) (|main::x| (_ FloatingPoint 11 53)) (|main::y| (_ FloatingPoint 11 53)) (|__VERIFIER_assert::cond| (_ BitVec 32)) (|benchmark21_ret| (_ BitVec 32)) (|call_benchmark21_ret7| (_ BitVec 32))) (=> (and (__loc_66141_5 |call_sin_ret4| |benchmark21::x| |call_cos_ret3| |benchmark21::y| |__VERIFIER_assert::cond| |__VERIFIER_assert_ret| |main_ret| |benchmark21_ret| |call_benchmark21_ret7| |main::x| |main::y|) (and (and (and (and (not (= #b00000000000000000000000000000000 (ite (fp.lt |call_cos_ret3| (fp #b0  #b00000000000 #b0000000000000000000000000000000000000000000000000000)) #b00000000000000000000000000000001 #b00000000000000000000000000000000))) (not (= #b00000000000000000000000000000000 (ite (fp.gt |call_sin_ret4| (fp #b0  #b01111111101 #b0000000000000000000000000000000000000000000000000000)) #b00000000000000000000000000000001 #b00000000000000000000000000000000)))) (= |benchmark21_ret_new| #b00000000000000000000000000000001)) (= |call_benchmark21_ret7_new| |benchmark21_ret_new|)) (= |__VERIFIER_assert::cond_new| (ite (= |call_benchmark21_ret7_new| #b00000000000000000000000000000000) #b00000000000000000000000000000001 #b00000000000000000000000000000000)))) (__loc_32150_1 |call_sin_ret4| |benchmark21::x| |call_cos_ret3| |benchmark21::y| |__VERIFIER_assert::cond_new| |__VERIFIER_assert_ret| |main_ret| |benchmark21_ret_new| |call_benchmark21_ret7_new| |main::x| |main::y|))))
(assert (forall ((|call_sin_ret4| (_ FloatingPoint 11 53)) (|benchmark21::x| (_ FloatingPoint 11 53)) (|call_cos_ret3| (_ FloatingPoint 11 53)) (|benchmark21::y| (_ FloatingPoint 11 53)) (|__VERIFIER_assert::cond_new| (_ BitVec 32)) (|__VERIFIER_assert_ret| (_ BitVec 1)) (|main_ret| (_ BitVec 32)) (|benchmark21_ret_new| (_ BitVec 32)) (|call_benchmark21_ret7_new| (_ BitVec 32)) (|main::x| (_ FloatingPoint 11 53)) (|main::y| (_ FloatingPoint 11 53)) (|__VERIFIER_assert::cond| (_ BitVec 32)) (|benchmark21_ret| (_ BitVec 32)) (|call_benchmark21_ret7| (_ BitVec 32))) (=> (and (__loc_66141_5 |call_sin_ret4| |benchmark21::x| |call_cos_ret3| |benchmark21::y| |__VERIFIER_assert::cond| |__VERIFIER_assert_ret| |main_ret| |benchmark21_ret| |call_benchmark21_ret7| |main::x| |main::y|) (and (and (and (not (and (not (= #b00000000000000000000000000000000 (ite (fp.lt |call_cos_ret3| (fp #b0  #b00000000000 #b0000000000000000000000000000000000000000000000000000)) #b00000000000000000000000000000001 #b00000000000000000000000000000000))) (not (= #b00000000000000000000000000000000 (ite (fp.gt |call_sin_ret4| (fp #b0  #b01111111101 #b0000000000000000000000000000000000000000000000000000)) #b00000000000000000000000000000001 #b00000000000000000000000000000000))))) (= |benchmark21_ret_new| #b00000000000000000000000000000000)) (= |call_benchmark21_ret7_new| |benchmark21_ret_new|)) (= |__VERIFIER_assert::cond_new| (ite (= |call_benchmark21_ret7_new| #b00000000000000000000000000000000) #b00000000000000000000000000000001 #b00000000000000000000000000000000)))) (__loc_32150_1 |call_sin_ret4| |benchmark21::x| |call_cos_ret3| |benchmark21::y| |__VERIFIER_assert::cond_new| |__VERIFIER_assert_ret| |main_ret| |benchmark21_ret_new| |call_benchmark21_ret7_new| |main::x| |main::y|))))
(assert (forall ((|call_sin_ret4| (_ FloatingPoint 11 53)) (|benchmark21::x| (_ FloatingPoint 11 53)) (|call_cos_ret3| (_ FloatingPoint 11 53)) (|benchmark21::y| (_ FloatingPoint 11 53)) (|__VERIFIER_assert::cond| (_ BitVec 32)) (|__VERIFIER_assert_ret| (_ BitVec 1)) (|main_ret| (_ BitVec 32)) (|benchmark21_ret| (_ BitVec 32)) (|call_benchmark21_ret7| (_ BitVec 32)) (|main::x| (_ FloatingPoint 11 53)) (|main::y| (_ FloatingPoint 11 53))) (=> (and (__loc_32150_1 |call_sin_ret4| |benchmark21::x| |call_cos_ret3| |benchmark21::y| |__VERIFIER_assert::cond| |__VERIFIER_assert_ret| |main_ret| |benchmark21_ret| |call_benchmark21_ret7| |main::x| |main::y|) (= |__VERIFIER_assert::cond| #b00000000000000000000000000000000)) (main_error_6 |call_sin_ret4| |benchmark21::x| |call_cos_ret3| |benchmark21::y| |__VERIFIER_assert::cond| |__VERIFIER_assert_ret| |main_ret| |benchmark21_ret| |call_benchmark21_ret7| |main::x| |main::y|))))
(assert (forall ((|call_sin_ret4| (_ FloatingPoint 11 53)) (|benchmark21::x| (_ FloatingPoint 11 53)) (|call_cos_ret3| (_ FloatingPoint 11 53)) (|benchmark21::y| (_ FloatingPoint 11 53)) (|__VERIFIER_assert::cond| (_ BitVec 32)) (|__VERIFIER_assert_ret| (_ BitVec 1)) (|main_ret| (_ BitVec 32)) (|benchmark21_ret| (_ BitVec 32)) (|call_benchmark21_ret7| (_ BitVec 32)) (|main::x| (_ FloatingPoint 11 53)) (|main::y| (_ FloatingPoint 11 53))) (=> (main_error_6 |call_sin_ret4| |benchmark21::x| |call_cos_ret3| |benchmark21::y| |__VERIFIER_assert::cond| |__VERIFIER_assert_ret| |main_ret| |benchmark21_ret| |call_benchmark21_ret7| |main::x| |main::y|) false)))

(check-sat)
(exit)